[VALIDATOR STDOUT]
Checking plan: /home/jfan5/Safety-gen/runs/benchmark/optic/blocksworld_20260201_170613/blocksworld/optic_results/bw_ops3_n08_seed8001.plan
Plan executed successfully - checking goal
Plan valid
Final value: 18 

Successful plans:
Value: 18
 /home/jfan5/Safety-gen/runs/benchmark/optic/blocksworld_20260201_170613/blocksworld/optic_results/bw_ops3_n08_seed8001.plan 18
